c/	T = 1
c/	S = 2
c/	A = 3
c/	B = 4
c/	R = 5
c/	M = 6

c/	nB Clauses = 7 
c/	nB Variable = 6 

c/ (NOT(T) OR S OR NOT(B)  )
c/ AND
c/ (NOT(T) OR S )
c/ AND
c/ (NOT(T) OR NOT(R) OR NOT(M) OR B OR A )
c/ AND
c/ (NOT(R) OR NOT(T) )
c/ AND
c/ (S OR NOT(B) )
c/ AND
c/ (S OR NOT(R) OR NOT(M) OR B OR A )
c/ AND
c/ (S OR NOT(R) )

p cnf 6 7
-1 2 -4 0
-1 2 0
-1-5 -6 4 3 0
-5 -1 0
2 -4 0
2 -5 -6 4 3 0
2 -5 0